crystal structure from VMoWS2 with Hexag
   1.00000000000000     
     8.3085282161658540    4.8287560315430031    0.0000000000000000
    -8.2813049742587044    4.7816269054300440    0.0000000000000000
     0.0000000000000000    0.0000000000000000   30.0000000000000000
   V    Mo   W    S 
     3     3     3    18
Direct
  0.0352636487365116  0.0176109606686336 -0.0013674345320932
  1.0352599015569677  0.3509336281990035 -0.0013663803154689
  0.0352540616789791  0.6842713848669529 -0.0013671663792089
  0.3428543490079032  0.0047447798003786 -0.0008025795001811
  0.3428500263365805  0.3380580722465911 -0.0008029062153713
  0.3428556416156388  0.6713736100093513 -0.0008023840481317
  0.6287806485576055 -0.0189802348504334  0.0020832560319702
  0.6287868561097104  0.3143601255755633  0.0020818883204410
  0.6287861124121894  0.6476940886042019  0.0020821703490114
  0.1101850018339419  0.2217223496121688  0.9470196334745552
  0.2217783167682242  0.1108638395722225  0.0524450216437636
  0.1101849898593318  0.5550496915639486  0.9470195195010934
  0.2217769828582410  0.4441926013294405  0.0524457242625811
  0.1101872324784827  0.8883944632253687  0.9470184994412244
  0.2217853977590429  0.7775327031550472  0.0524435650211669
  0.4403127741777609  0.2201184548477771  0.9439658222297987
  0.5507531785713301  0.1086814762360208  0.0573596323662533
  0.4403127117933445  0.5534482974624036  0.9439657515294861
  0.5507586910419147  0.4420160339231142  0.0573599017188953
  0.4403056389265039  0.8867787757228984  0.9439695783436808
  0.5507508620025603  0.7753423592854971  0.0573606996592428
  0.7793053268256995  0.2229476447033930  0.9562431851728935
  0.8901698755144596  0.1117152353692020  0.0430537376704990
  0.7793071341567167  0.5562854627106695  0.9562418954323578
  0.8901707925164210  0.4450509799307224  0.0430534927759956
  0.7793067948430392  0.8896185846649814  0.9562424037458560
  0.8901715054978779  0.7783890850424523  0.0430533714996825
 
  0.00000000E+00  0.00000000E+00  0.00000000E+00
  0.00000000E+00  0.00000000E+00  0.00000000E+00
  0.00000000E+00  0.00000000E+00  0.00000000E+00
  0.00000000E+00  0.00000000E+00  0.00000000E+00
  0.00000000E+00  0.00000000E+00  0.00000000E+00
  0.00000000E+00  0.00000000E+00  0.00000000E+00
  0.00000000E+00  0.00000000E+00  0.00000000E+00
  0.00000000E+00  0.00000000E+00  0.00000000E+00
  0.00000000E+00  0.00000000E+00  0.00000000E+00
  0.00000000E+00  0.00000000E+00  0.00000000E+00
  0.00000000E+00  0.00000000E+00  0.00000000E+00
  0.00000000E+00  0.00000000E+00  0.00000000E+00
  0.00000000E+00  0.00000000E+00  0.00000000E+00
  0.00000000E+00  0.00000000E+00  0.00000000E+00
  0.00000000E+00  0.00000000E+00  0.00000000E+00
  0.00000000E+00  0.00000000E+00  0.00000000E+00
  0.00000000E+00  0.00000000E+00  0.00000000E+00
  0.00000000E+00  0.00000000E+00  0.00000000E+00
  0.00000000E+00  0.00000000E+00  0.00000000E+00
  0.00000000E+00  0.00000000E+00  0.00000000E+00
  0.00000000E+00  0.00000000E+00  0.00000000E+00
  0.00000000E+00  0.00000000E+00  0.00000000E+00
  0.00000000E+00  0.00000000E+00  0.00000000E+00
  0.00000000E+00  0.00000000E+00  0.00000000E+00
  0.00000000E+00  0.00000000E+00  0.00000000E+00
  0.00000000E+00  0.00000000E+00  0.00000000E+00
  0.00000000E+00  0.00000000E+00  0.00000000E+00
