crystal structure from VMoWS2 with Hexag
   1.00000000000000     
     8.3085286651688079    4.8287563010552015    0.0000000000000000
    -8.2813053805527765    4.7816271586425074    0.0000000000000000
     0.0000000000000000    0.0000000000000000   30.0000000000000000
   V    Mo   W    S 
     3     3     3    18
Direct
  0.0352636557897218  0.0176109702344661 -0.0013674309224359
  1.0352599078073164  0.3509336252848539 -0.0013663768067403
  0.0352540529484344  0.6842713805204476 -0.0013671620814943
  0.3428543512929162  0.0047447858090895 -0.0008025801724140
  0.3428500164159792  0.3380580697119411 -0.0008029069944433
  0.3428556445285998  0.6713736041483711 -0.0008023846928015
  0.6287806497066479 -0.0189802342245557  0.0020832543416248
  0.6287868577401190  0.3143601251811819  0.0020818865804577
  0.6287861147453878  0.6476940909510055  0.0020821685180318
  0.1101849937424404  0.2217223455370373  0.9470196389473354
  0.2217783210962956  0.1108638416404195  0.0524450206645668
  0.1101849838419392  0.5550496828580993  0.9470195245559092
  0.2217769873923816  0.4441926040748809  0.0524457237422564
  0.1101872260917354  0.8883944657968447  0.9470185045947064
  0.2217854083159987  0.7775327080081363  0.0524435650724251
  0.4403127668836722  0.2201184510558270  0.9439658204062231
  0.5507531846746924  0.1086814787584069  0.0573596290985786
  0.4403127055139880  0.5534482950021853  0.9439657492284680
  0.5507586986788162  0.4420160379776766  0.0573598981143621
  0.4403056325725402  0.8867787720803422  0.9439695770755127
  0.5507508687491302  0.7753423628656833  0.0573606963190640
  0.7793053311492141  0.2229476471001452  0.9562431845501717
  0.8901698730012563  0.1117152339538964  0.0430537372648220
  0.7793071324599221  0.5562854616276740  0.9562418937140682
  0.8901707875652901  0.4450509728899923  0.0430534931862290
  0.7793067997943670  0.8896185872010565  0.9562424030983278
  0.8901715009381774  0.7783890874324630  0.0430533717971802
 
  0.00000000E+00  0.00000000E+00  0.00000000E+00
  0.00000000E+00  0.00000000E+00  0.00000000E+00
  0.00000000E+00  0.00000000E+00  0.00000000E+00
  0.00000000E+00  0.00000000E+00  0.00000000E+00
  0.00000000E+00  0.00000000E+00  0.00000000E+00
  0.00000000E+00  0.00000000E+00  0.00000000E+00
  0.00000000E+00  0.00000000E+00  0.00000000E+00
  0.00000000E+00  0.00000000E+00  0.00000000E+00
  0.00000000E+00  0.00000000E+00  0.00000000E+00
  0.00000000E+00  0.00000000E+00  0.00000000E+00
  0.00000000E+00  0.00000000E+00  0.00000000E+00
  0.00000000E+00  0.00000000E+00  0.00000000E+00
  0.00000000E+00  0.00000000E+00  0.00000000E+00
  0.00000000E+00  0.00000000E+00  0.00000000E+00
  0.00000000E+00  0.00000000E+00  0.00000000E+00
  0.00000000E+00  0.00000000E+00  0.00000000E+00
  0.00000000E+00  0.00000000E+00  0.00000000E+00
  0.00000000E+00  0.00000000E+00  0.00000000E+00
  0.00000000E+00  0.00000000E+00  0.00000000E+00
  0.00000000E+00  0.00000000E+00  0.00000000E+00
  0.00000000E+00  0.00000000E+00  0.00000000E+00
  0.00000000E+00  0.00000000E+00  0.00000000E+00
  0.00000000E+00  0.00000000E+00  0.00000000E+00
  0.00000000E+00  0.00000000E+00  0.00000000E+00
  0.00000000E+00  0.00000000E+00  0.00000000E+00
  0.00000000E+00  0.00000000E+00  0.00000000E+00
  0.00000000E+00  0.00000000E+00  0.00000000E+00
