crystal structure from VMoWS2 with Hexag
   1.00000000000000     
     8.3085283787206219    4.8287561579315419    0.0000000000000000
    -8.2813051413859338    4.7816269871284032    0.0000000000000000
     0.0000000000000000    0.0000000000000000   30.0000000000000000
   V    Mo   W    S 
     3     3     3    18
Direct
  0.0352636515706728  0.0176109644781103 -0.0013674332909449
  1.0352599040793391  0.3509336268773847 -0.0013663790522630
  0.0352540582098805  0.6842713832461249 -0.0013671647693845
  0.3428543498692474  0.0047447835391462 -0.0008025797454355
  0.3428500223580618  0.3380580697339349 -0.0008029065052553
  0.3428556427406311  0.6713736077309005 -0.0008023842842420
  0.6287806489014608 -0.0189802346437182  0.0020832555063638
  0.6287868569699891  0.3143601255007011  0.0020818877050689
  0.6287861132244874  0.6476940895319871  0.0020821697653558
  0.1101849989106602  0.2217223480582280  0.9470196354751897
  0.2217783180270526  0.1108638401089316  0.0524450213612229
  0.1101849876327382  0.5550496883087443  0.9470195214208795
  0.2217769844640637  0.4441926021166151  0.0524457239340941
  0.1101872301637299  0.8883944644746445  0.9470185013579231
  0.2217854017227038  0.7775327050608207  0.0524435649359556
  0.4403127718893435  0.2201184536763794  0.9439658213626232
  0.5507531808870249  0.1086814772559659  0.0573596311772036
  0.4403127093549476  0.5534482963623237  0.9439657507655269
  0.5507586939763121  0.4420160352730503  0.0573599003825837
  0.4403056364594607  0.8867787745679401  0.9439695779769121
  0.5507508642612597  0.7753423604490398  0.0573606984571332
  0.7793053284661926  0.2229476455606307  0.9562431849570422
  0.8901698746791896  0.1117152348136488  0.0430537374656084
  0.7793071333838162  0.5562854623853406  0.9562418947952914
  0.8901707907657479  0.4450509771888311  0.0430534928689044
  0.7793067966395355  0.8896185856562797  0.9562424035902466
  0.8901715038294303  0.7783890861655858  0.0430533715863883
 
  0.00000000E+00  0.00000000E+00  0.00000000E+00
  0.00000000E+00  0.00000000E+00  0.00000000E+00
  0.00000000E+00  0.00000000E+00  0.00000000E+00
  0.00000000E+00  0.00000000E+00  0.00000000E+00
  0.00000000E+00  0.00000000E+00  0.00000000E+00
  0.00000000E+00  0.00000000E+00  0.00000000E+00
  0.00000000E+00  0.00000000E+00  0.00000000E+00
  0.00000000E+00  0.00000000E+00  0.00000000E+00
  0.00000000E+00  0.00000000E+00  0.00000000E+00
  0.00000000E+00  0.00000000E+00  0.00000000E+00
  0.00000000E+00  0.00000000E+00  0.00000000E+00
  0.00000000E+00  0.00000000E+00  0.00000000E+00
  0.00000000E+00  0.00000000E+00  0.00000000E+00
  0.00000000E+00  0.00000000E+00  0.00000000E+00
  0.00000000E+00  0.00000000E+00  0.00000000E+00
  0.00000000E+00  0.00000000E+00  0.00000000E+00
  0.00000000E+00  0.00000000E+00  0.00000000E+00
  0.00000000E+00  0.00000000E+00  0.00000000E+00
  0.00000000E+00  0.00000000E+00  0.00000000E+00
  0.00000000E+00  0.00000000E+00  0.00000000E+00
  0.00000000E+00  0.00000000E+00  0.00000000E+00
  0.00000000E+00  0.00000000E+00  0.00000000E+00
  0.00000000E+00  0.00000000E+00  0.00000000E+00
  0.00000000E+00  0.00000000E+00  0.00000000E+00
  0.00000000E+00  0.00000000E+00  0.00000000E+00
  0.00000000E+00  0.00000000E+00  0.00000000E+00
  0.00000000E+00  0.00000000E+00  0.00000000E+00
