crystal structure from VMoWS2 with Hexag
   1.00000000000000     
     8.3085280517062294    4.8287562061675988    0.0000000000000000
    -8.2813046019988903    4.7816266816687341    0.0000000000000000
     0.0000000000000000    0.0000000000000000   30.0000000000000000
   V    Mo   W    S 
     3     3     3    18
Direct
  0.0352636026321191  0.0176109160862924 -0.0013673753151994
  1.0352598592837527  0.3509336298523914 -0.0013663206590383
  0.0352540772972247  0.6842713928951933 -0.0013671118483887
  0.3428543635037001  0.0047447656064192 -0.0008025890939497
  0.3428500850611564  0.3380580949465248 -0.0008029163371201
  0.3428556538896268  0.6713736423662895 -0.0008023937908236
  0.6287806644019774 -0.0189802265054606  0.0020832144783761
  0.6287868719704726  0.3143601395134372  0.0020818469553390
  0.6287861264486679  0.6476940911533048  0.0020821292776898
  0.1101849127437111  0.2217223047581343  0.9470196897508932
  0.2217784704198523  0.1108639168192477  0.0524450357038017
  0.1101848938664218  0.5550496638317822  0.9470195764283016
  0.2217771360957720  0.4441926760318470  0.0524457370174690
  0.1101871371226621  0.8883943927420266  0.9470185556870897
  0.2217855323755790  0.7775327711256096  0.0524435774523347
  0.4403126715869441  0.2201184035293344  0.9439657951886430
  0.5507532738010409  0.1086815264435346  0.0573595870398542
  0.4403126069641434  0.5534482433673253  0.9439657256859050
  0.5507587822758472  0.4420160793214390  0.0573598580725577
  0.4403055345818446  0.8867787246004061  0.9439695485092257
  0.5507509552894371  0.7753424052098362  0.0573606546271653
  0.7793053553598657  0.2229476591197372  0.9562431570068376
  0.8901697706230438  0.1117151829372071  0.0430537621847781
  0.7793071889249262  0.5562854917290120  0.9562418723613157
  0.8901706971662473  0.4450509505205614  0.0430535142606504
  0.7793068210264125  0.8896185985124087  0.9562423753246377
  0.8901714087245309  0.7783890169637346  0.0430533932316449
 
  0.00000000E+00  0.00000000E+00  0.00000000E+00
  0.00000000E+00  0.00000000E+00  0.00000000E+00
  0.00000000E+00  0.00000000E+00  0.00000000E+00
  0.00000000E+00  0.00000000E+00  0.00000000E+00
  0.00000000E+00  0.00000000E+00  0.00000000E+00
  0.00000000E+00  0.00000000E+00  0.00000000E+00
  0.00000000E+00  0.00000000E+00  0.00000000E+00
  0.00000000E+00  0.00000000E+00  0.00000000E+00
  0.00000000E+00  0.00000000E+00  0.00000000E+00
  0.00000000E+00  0.00000000E+00  0.00000000E+00
  0.00000000E+00  0.00000000E+00  0.00000000E+00
  0.00000000E+00  0.00000000E+00  0.00000000E+00
  0.00000000E+00  0.00000000E+00  0.00000000E+00
  0.00000000E+00  0.00000000E+00  0.00000000E+00
  0.00000000E+00  0.00000000E+00  0.00000000E+00
  0.00000000E+00  0.00000000E+00  0.00000000E+00
  0.00000000E+00  0.00000000E+00  0.00000000E+00
  0.00000000E+00  0.00000000E+00  0.00000000E+00
  0.00000000E+00  0.00000000E+00  0.00000000E+00
  0.00000000E+00  0.00000000E+00  0.00000000E+00
  0.00000000E+00  0.00000000E+00  0.00000000E+00
  0.00000000E+00  0.00000000E+00  0.00000000E+00
  0.00000000E+00  0.00000000E+00  0.00000000E+00
  0.00000000E+00  0.00000000E+00  0.00000000E+00
  0.00000000E+00  0.00000000E+00  0.00000000E+00
  0.00000000E+00  0.00000000E+00  0.00000000E+00
  0.00000000E+00  0.00000000E+00  0.00000000E+00
